# Solution for model GNN
# Objective value = 1.9125112356082323e+00
A[0,0] 1
A[0,1] 1
A[0,2] 0
A[0,3] 0
A[1,0] 1
A[1,1] 1
A[1,2] 1
A[1,3] 1
A[2,0] 0
A[2,1] 1
A[2,2] 1
A[2,3] 0
A[3,0] 0
A[3,1] 1
A[3,2] 0
A[3,3] 1
x[0,0] 0
x[0,1] 1
x[0,2] 0
x[0,3] 0
x[0,4] 0
x[0,5] 1
x[0,6] 0
x[0,7] 0
x[0,8] 0
x[0,9] 0
x[0,10] 1
x[0,11] 0
x[0,12] 0
x[0,13] 0
x[1,0] 1
x[1,1] 0
x[1,2] 0
x[1,3] 0
x[1,4] 0
x[1,5] 0
x[1,6] 0
x[1,7] 1
x[1,8] 0
x[1,9] 0
x[1,10] 1
x[1,11] 0
x[1,12] 0
x[1,13] 0
x[2,0] 0
x[2,1] 1
x[2,2] 0
x[2,3] 0
x[2,4] 0
x[2,5] 1
x[2,6] 0
x[2,7] 0
x[2,8] 0
x[2,9] 0
x[2,10] 1
x[2,11] 0
x[2,12] 0
x[2,13] 0
x[3,0] 0
x[3,1] 1
x[3,2] 0
x[3,3] 0
x[3,4] 0
x[3,5] 1
x[3,6] 0
x[3,7] 0
x[3,8] 0
x[3,9] 0
x[3,10] 1
x[3,11] 0
x[3,12] 0
x[3,13] 0
c[0,0,0] 0
c[0,0,1] 0
c[0,0,2] 0
c[0,0,3] 0
c[0,0,4] 0
c[0,0,5] 0
c[0,0,6] 0
c[0,0,7] 0
c[0,0,8] 0
c[0,0,9] 0
c[0,0,10] 0
c[0,0,11] 0
c[0,0,12] 1
c[0,0,13] 0
c[0,0,14] 0
c[0,0,15] 0
c[0,0,16] 0
c[0,0,17] 0
c[0,0,18] 0
c[0,0,19] 0
c[0,0,20] 0
c[0,0,21] 0
c[0,0,22] 0
c[0,0,23] 0
c[0,0,24] 0
c[0,1,0] 0
c[0,1,1] 0
c[0,1,2] 0
c[0,1,3] 0
c[0,1,4] 0
c[0,1,5] 0
c[0,1,6] 0
c[0,1,7] 0
c[0,1,8] 0
c[0,1,9] 0
c[0,1,10] 0
c[0,1,11] 0
c[0,1,12] 0
c[0,1,13] 0
c[0,1,14] 1
c[0,1,15] 0
c[0,1,16] 0
c[0,1,17] 0
c[0,1,18] 0
c[0,1,19] 0
c[0,1,20] 0
c[0,1,21] 0
c[0,1,22] 0
c[0,1,23] 0
c[0,1,24] 0
c[0,2,0] 0
c[0,2,1] 0
c[0,2,2] 0
c[0,2,3] 0
c[0,2,4] 0
c[0,2,5] 0
c[0,2,6] 0
c[0,2,7] 0
c[0,2,8] 0
c[0,2,9] 0
c[0,2,10] 0
c[0,2,11] 0
c[0,2,12] 1
c[0,2,13] 0
c[0,2,14] 0
c[0,2,15] 0
c[0,2,16] 0
c[0,2,17] 0
c[0,2,18] 0
c[0,2,19] 0
c[0,2,20] 0
c[0,2,21] 0
c[0,2,22] 0
c[0,2,23] 0
c[0,2,24] 0
c[0,3,0] 0
c[0,3,1] 0
c[0,3,2] 0
c[0,3,3] 0
c[0,3,4] 0
c[0,3,5] 0
c[0,3,6] 0
c[0,3,7] 0
c[0,3,8] 0
c[0,3,9] 0
c[0,3,10] 0
c[0,3,11] 0
c[0,3,12] 1
c[0,3,13] 0
c[0,3,14] 0
c[0,3,15] 0
c[0,3,16] 0
c[0,3,17] 0
c[0,3,18] 0
c[0,3,19] 0
c[0,3,20] 0
c[0,3,21] 0
c[0,3,22] 0
c[0,3,23] 0
c[0,3,24] 0
c[1,0,0] 0
c[1,0,1] 0
c[1,0,2] 0
c[1,0,3] 0
c[1,0,4] 0
c[1,0,5] 0
c[1,0,6] 0
c[1,0,7] 0
c[1,0,8] 0
c[1,0,9] 0
c[1,0,10] 0
c[1,0,11] 0
c[1,0,12] 0
c[1,0,13] 0
c[1,0,14] 0
c[1,0,15] 0
c[1,0,16] 0
c[1,0,17] 0
c[1,0,18] 0
c[1,0,19] 0
c[1,0,20] 0
c[1,0,21] 0
c[1,0,22] 1
c[1,0,23] 0
c[1,0,24] 0
c[1,1,0] 0
c[1,1,1] 0
c[1,1,2] 0
c[1,1,3] 0
c[1,1,4] 0
c[1,1,5] 0
c[1,1,6] 0
c[1,1,7] 0
c[1,1,8] 0
c[1,1,9] 0
c[1,1,10] 0
c[1,1,11] 0
c[1,1,12] 0
c[1,1,13] 0
c[1,1,14] 0
c[1,1,15] 0
c[1,1,16] 0
c[1,1,17] 0
c[1,1,18] 0
c[1,1,19] 0
c[1,1,20] 0
c[1,1,21] 0
c[1,1,22] 0
c[1,1,23] 0
c[1,1,24] 1
c[1,2,0] 0
c[1,2,1] 0
c[1,2,2] 0
c[1,2,3] 0
c[1,2,4] 0
c[1,2,5] 0
c[1,2,6] 0
c[1,2,7] 0
c[1,2,8] 0
c[1,2,9] 0
c[1,2,10] 0
c[1,2,11] 0
c[1,2,12] 0
c[1,2,13] 0
c[1,2,14] 0
c[1,2,15] 0
c[1,2,16] 0
c[1,2,17] 0
c[1,2,18] 0
c[1,2,19] 0
c[1,2,20] 0
c[1,2,21] 0
c[1,2,22] 1
c[1,2,23] 0
c[1,2,24] 0
c[1,3,0] 0
c[1,3,1] 0
c[1,3,2] 0
c[1,3,3] 0
c[1,3,4] 0
c[1,3,5] 0
c[1,3,6] 0
c[1,3,7] 0
c[1,3,8] 0
c[1,3,9] 0
c[1,3,10] 0
c[1,3,11] 0
c[1,3,12] 0
c[1,3,13] 0
c[1,3,14] 0
c[1,3,15] 0
c[1,3,16] 0
c[1,3,17] 0
c[1,3,18] 0
c[1,3,19] 0
c[1,3,20] 0
c[1,3,21] 0
c[1,3,22] 1
c[1,3,23] 0
c[1,3,24] 0
c[2,0,0] 0
c[2,0,1] 0
c[2,0,2] 0
c[2,0,3] 0
c[2,0,4] 0
c[2,0,5] 0
c[2,0,6] 0
c[2,0,7] 0
c[2,0,8] 0
c[2,0,9] 0
c[2,0,10] 0
c[2,0,11] 0
c[2,0,12] 1
c[2,0,13] 0
c[2,0,14] 0
c[2,0,15] 0
c[2,0,16] 0
c[2,0,17] 0
c[2,0,18] 0
c[2,0,19] 0
c[2,0,20] 0
c[2,0,21] 0
c[2,0,22] 0
c[2,0,23] 0
c[2,0,24] 0
c[2,1,0] 0
c[2,1,1] 0
c[2,1,2] 0
c[2,1,3] 0
c[2,1,4] 0
c[2,1,5] 0
c[2,1,6] 0
c[2,1,7] 0
c[2,1,8] 0
c[2,1,9] 0
c[2,1,10] 0
c[2,1,11] 0
c[2,1,12] 0
c[2,1,13] 0
c[2,1,14] 1
c[2,1,15] 0
c[2,1,16] 0
c[2,1,17] 0
c[2,1,18] 0
c[2,1,19] 0
c[2,1,20] 0
c[2,1,21] 0
c[2,1,22] 0
c[2,1,23] 0
c[2,1,24] 0
c[2,2,0] 0
c[2,2,1] 0
c[2,2,2] 0
c[2,2,3] 0
c[2,2,4] 0
c[2,2,5] 0
c[2,2,6] 0
c[2,2,7] 0
c[2,2,8] 0
c[2,2,9] 0
c[2,2,10] 0
c[2,2,11] 0
c[2,2,12] 1
c[2,2,13] 0
c[2,2,14] 0
c[2,2,15] 0
c[2,2,16] 0
c[2,2,17] 0
c[2,2,18] 0
c[2,2,19] 0
c[2,2,20] 0
c[2,2,21] 0
c[2,2,22] 0
c[2,2,23] 0
c[2,2,24] 0
c[2,3,0] 0
c[2,3,1] 0
c[2,3,2] 0
c[2,3,3] 0
c[2,3,4] 0
c[2,3,5] 0
c[2,3,6] 0
c[2,3,7] 0
c[2,3,8] 0
c[2,3,9] 0
c[2,3,10] 0
c[2,3,11] 0
c[2,3,12] 1
c[2,3,13] 0
c[2,3,14] 0
c[2,3,15] 0
c[2,3,16] 0
c[2,3,17] 0
c[2,3,18] 0
c[2,3,19] 0
c[2,3,20] 0
c[2,3,21] 0
c[2,3,22] 0
c[2,3,23] 0
c[2,3,24] 0
c[3,0,0] 0
c[3,0,1] 0
c[3,0,2] 0
c[3,0,3] 0
c[3,0,4] 0
c[3,0,5] 0
c[3,0,6] 0
c[3,0,7] 0
c[3,0,8] 0
c[3,0,9] 0
c[3,0,10] 0
c[3,0,11] 0
c[3,0,12] 1
c[3,0,13] 0
c[3,0,14] 0
c[3,0,15] 0
c[3,0,16] 0
c[3,0,17] 0
c[3,0,18] 0
c[3,0,19] 0
c[3,0,20] 0
c[3,0,21] 0
c[3,0,22] 0
c[3,0,23] 0
c[3,0,24] 0
c[3,1,0] 0
c[3,1,1] 0
c[3,1,2] 0
c[3,1,3] 0
c[3,1,4] 0
c[3,1,5] 0
c[3,1,6] 0
c[3,1,7] 0
c[3,1,8] 0
c[3,1,9] 0
c[3,1,10] 0
c[3,1,11] 0
c[3,1,12] 0
c[3,1,13] 0
c[3,1,14] 1
c[3,1,15] 0
c[3,1,16] 0
c[3,1,17] 0
c[3,1,18] 0
c[3,1,19] 0
c[3,1,20] 0
c[3,1,21] 0
c[3,1,22] 0
c[3,1,23] 0
c[3,1,24] 0
c[3,2,0] 0
c[3,2,1] 0
c[3,2,2] 0
c[3,2,3] 0
c[3,2,4] 0
c[3,2,5] 0
c[3,2,6] 0
c[3,2,7] 0
c[3,2,8] 0
c[3,2,9] 0
c[3,2,10] 0
c[3,2,11] 0
c[3,2,12] 1
c[3,2,13] 0
c[3,2,14] 0
c[3,2,15] 0
c[3,2,16] 0
c[3,2,17] 0
c[3,2,18] 0
c[3,2,19] 0
c[3,2,20] 0
c[3,2,21] 0
c[3,2,22] 0
c[3,2,23] 0
c[3,2,24] 0
c[3,3,0] 0
c[3,3,1] 0
c[3,3,2] 0
c[3,3,3] 0
c[3,3,4] 0
c[3,3,5] 0
c[3,3,6] 0
c[3,3,7] 0
c[3,3,8] 0
c[3,3,9] 0
c[3,3,10] 0
c[3,3,11] 0
c[3,3,12] 1
c[3,3,13] 0
c[3,3,14] 0
c[3,3,15] 0
c[3,3,16] 0
c[3,3,17] 0
c[3,3,18] 0
c[3,3,19] 0
c[3,3,20] 0
c[3,3,21] 0
c[3,3,22] 0
c[3,3,23] 0
c[3,3,24] 0
b[0,0,0] 0
b[0,0,1] 0
b[0,0,2] 0
b[0,0,3] 0
b[0,0,4] 0
b[0,0,5] 0
b[0,0,6] 0
b[0,0,7] 0
b[0,0,8] 0
b[0,0,9] 0
b[0,0,10] 0
b[0,0,11] 0
b[0,0,12] 0
b[0,0,13] 0
b[0,1,0] 0
b[0,1,1] 0
b[0,1,2] 0
b[0,1,3] 0
b[0,1,4] 0
b[0,1,5] 0
b[0,1,6] 0
b[0,1,7] 0
b[0,1,8] 0
b[0,1,9] 0
b[0,1,10] 0
b[0,1,11] 0
b[0,1,12] 0
b[0,1,13] 0
b[0,2,0] 0
b[0,2,1] 0
b[0,2,2] 0
b[0,2,3] 0
b[0,2,4] 0
b[0,2,5] 0
b[0,2,6] 0
b[0,2,7] 0
b[0,2,8] 0
b[0,2,9] 0
b[0,2,10] 0
b[0,2,11] 0
b[0,2,12] 0
b[0,2,13] 0
b[0,3,0] 0
b[0,3,1] 0
b[0,3,2] 0
b[0,3,3] 0
b[0,3,4] 0
b[0,3,5] 0
b[0,3,6] 0
b[0,3,7] 0
b[0,3,8] 0
b[0,3,9] 0
b[0,3,10] 0
b[0,3,11] 0
b[0,3,12] 0
b[0,3,13] 0
b[1,0,0] 0
b[1,0,1] 0
b[1,0,2] 0
b[1,0,3] 0
b[1,0,4] 0
b[1,0,5] 0
b[1,0,6] 0
b[1,0,7] 0
b[1,0,8] 0
b[1,0,9] 0
b[1,0,10] 0
b[1,0,11] 0
b[1,0,12] 0
b[1,0,13] 0
b[1,1,0] 0
b[1,1,1] 0
b[1,1,2] 0
b[1,1,3] 0
b[1,1,4] 0
b[1,1,5] 0
b[1,1,6] 0
b[1,1,7] 0
b[1,1,8] 0
b[1,1,9] 0
b[1,1,10] 0
b[1,1,11] 0
b[1,1,12] 0
b[1,1,13] 0
b[1,2,0] 0
b[1,2,1] 0
b[1,2,2] 0
b[1,2,3] 0
b[1,2,4] 0
b[1,2,5] 0
b[1,2,6] 0
b[1,2,7] 0
b[1,2,8] 0
b[1,2,9] 0
b[1,2,10] 0
b[1,2,11] 0
b[1,2,12] 0
b[1,2,13] 0
b[1,3,0] 0
b[1,3,1] 0
b[1,3,2] 0
b[1,3,3] 0
b[1,3,4] 0
b[1,3,5] 0
b[1,3,6] 0
b[1,3,7] 0
b[1,3,8] 0
b[1,3,9] 0
b[1,3,10] 0
b[1,3,11] 0
b[1,3,12] 0
b[1,3,13] 0
b[2,0,0] 0
b[2,0,1] 0
b[2,0,2] 0
b[2,0,3] 0
b[2,0,4] 0
b[2,0,5] 0
b[2,0,6] 0
b[2,0,7] 0
b[2,0,8] 0
b[2,0,9] 0
b[2,0,10] 0
b[2,0,11] 0
b[2,0,12] 0
b[2,0,13] 0
b[2,1,0] 0
b[2,1,1] 0
b[2,1,2] 0
b[2,1,3] 0
b[2,1,4] 0
b[2,1,5] 0
b[2,1,6] 0
b[2,1,7] 0
b[2,1,8] 0
b[2,1,9] 0
b[2,1,10] 0
b[2,1,11] 0
b[2,1,12] 0
b[2,1,13] 0
b[2,2,0] 0
b[2,2,1] 0
b[2,2,2] 0
b[2,2,3] 0
b[2,2,4] 0
b[2,2,5] 0
b[2,2,6] 0
b[2,2,7] 0
b[2,2,8] 0
b[2,2,9] 0
b[2,2,10] 0
b[2,2,11] 0
b[2,2,12] 0
b[2,2,13] 0
b[2,3,0] 0
b[2,3,1] 0
b[2,3,2] 0
b[2,3,3] 0
b[2,3,4] 0
b[2,3,5] 0
b[2,3,6] 0
b[2,3,7] 0
b[2,3,8] 0
b[2,3,9] 0
b[2,3,10] 0
b[2,3,11] 0
b[2,3,12] 0
b[2,3,13] 0
b[3,0,0] 0
b[3,0,1] 0
b[3,0,2] 0
b[3,0,3] 0
b[3,0,4] 0
b[3,0,5] 0
b[3,0,6] 0
b[3,0,7] 0
b[3,0,8] 0
b[3,0,9] 0
b[3,0,10] 0
b[3,0,11] 0
b[3,0,12] 0
b[3,0,13] 0
b[3,1,0] 0
b[3,1,1] 0
b[3,1,2] 0
b[3,1,3] 0
b[3,1,4] 0
b[3,1,5] 0
b[3,1,6] 0
b[3,1,7] 0
b[3,1,8] 0
b[3,1,9] 0
b[3,1,10] 0
b[3,1,11] 0
b[3,1,12] 0
b[3,1,13] 0
b[3,2,0] 0
b[3,2,1] 0
b[3,2,2] 0
b[3,2,3] 0
b[3,2,4] 0
b[3,2,5] 0
b[3,2,6] 0
b[3,2,7] 0
b[3,2,8] 0
b[3,2,9] 0
b[3,2,10] 0
b[3,2,11] 0
b[3,2,12] 0
b[3,2,13] 0
b[3,3,0] 0
b[3,3,1] 0
b[3,3,2] 0
b[3,3,3] 0
b[3,3,4] 0
b[3,3,5] 0
b[3,3,6] 0
b[3,3,7] 0
b[3,3,8] 0
b[3,3,9] 0
b[3,3,10] 0
b[3,3,11] 0
b[3,3,12] 0
b[3,3,13] 0
sp[0,0] 4.9999999999999989e-01
sp[0,1] 3.5355339059327373e-01
sp[0,2] 4.9999999999999989e-01
sp[0,3] 4.9999999999999989e-01
sp[1,0] 3.5355339059327373e-01
sp[1,1] 0.25
sp[1,2] 3.5355339059327373e-01
sp[1,3] 3.5355339059327373e-01
sp[2,0] 4.9999999999999989e-01
sp[2,1] 3.5355339059327373e-01
sp[2,2] 0.5
sp[2,3] 4.9999999999999989e-01
sp[3,0] 4.9999999999999989e-01
sp[3,1] 3.5355339059327373e-01
sp[3,2] 4.9999999999999989e-01
sp[3,3] 0.5
d_plus[0] 2
d_plus[1] 4
d_plus[2] 2
d_plus[3] 2
p[0,0] 12
p[0,1] 14
p[0,2] 12
p[0,3] 12
p[1,0] 22
p[1,1] 24
p[1,2] 22
p[1,3] 22
p[2,0] 12
p[2,1] 14
p[2,2] 12
p[2,3] 12
p[3,0] 12
p[3,1] 14
p[3,2] 12
p[3,3] 12
t[0,0] 4.9999999999999989e-01
t[0,1] 3.5355339059327373e-01
t[0,2] 0
t[0,3] 0
t[1,0] 3.5355339059327373e-01
t[1,1] 0.25
t[1,2] 3.5355339059326618e-01
t[1,3] 3.5355339059327012e-01
t[2,0] 0
t[2,1] 3.5355339059326613e-01
t[2,2] 5.0000000000000033e-01
t[2,3] 0
t[3,0] 0
t[3,1] 3.5355339059326962e-01
t[3,2] 0
t[3,3] 0.5
h_prime[0,0] 4.9242313566503590e-02
h_prime[0,1] 0.105750576829244
h_prime[0,2] 3.8822539081106905e-01
h_prime[0,3] 4.4803599013179918e-01
h_prime[0,4] 0
h_prime[0,5] 0
h_prime[0,6] 3.2929525958054512e-02
h_prime[0,7] 0
h_prime[0,8] 4.4342119638137173e-01
h_prime[0,9] 0
h_prime[0,10] 3.0044660777820825e-01
h_prime[0,11] 0
h_prime[0,12] 2.2569630006445907e-01
h_prime[0,13] 1.1641596704636765e-01
h_prime[0,14] 2.9591305503522586e-01
h_prime[0,15] 0
h_prime[0,16] 8.2844919785322435e-02
h_prime[0,17] 0
h_prime[0,18] 0
h_prime[0,19] 1.7022742514430350e-01
h_prime[0,20] 2.0301192729487091e-01
h_prime[0,21] 4.3429471614187087e-01
h_prime[0,22] 0
h_prime[0,23] 1.3190309641399212e-01
h_prime[0,24] 4.7802509425494821e-01
h_prime[0,25] 0
h_prime[0,26] 0
h_prime[0,27] 9.4118727717478354e-02
h_prime[0,28] 0
h_prime[0,29] 3.5733100093533682e-01
h_prime[0,30] 5.5506112040986222e-01
h_prime[0,31] 3.5084551296734678e-01
h_prime[1,0] 9.0628870519934623e-02
h_prime[1,1] 1.5803162532909121e-01
h_prime[1,2] 4.9719946786115465e-01
h_prime[1,3] 6.1268967364084892e-01
h_prime[1,4] 0
h_prime[1,5] 0
h_prime[1,6] 4.7572299355990263e-02
h_prime[1,7] 1.5327877245515209e-02
h_prime[1,8] 5.8634884459242309e-01
h_prime[1,9] 0
h_prime[1,10] 3.8958920885127435e-01
h_prime[1,11] 0
h_prime[1,12] 3.1095152394057957e-01
h_prime[1,13] 1.1819796474935161e-01
h_prime[1,14] 4.3834957147825437e-01
h_prime[1,15] 0
h_prime[1,16] 1.1733528044150032e-01
h_prime[1,17] 0
h_prime[1,18] 0
h_prime[1,19] 2.2571478773384063e-01
h_prime[1,20] 2.7381426760732436e-01
h_prime[1,21] 6.4613114897453383e-01
h_prime[1,22] 0
h_prime[1,23] 1.9162068274616167e-01
h_prime[1,24] 6.6430457679315236e-01
h_prime[1,25] 0
h_prime[1,26] 0
h_prime[1,27] 1.7357707081999504e-01
h_prime[1,28] 0
h_prime[1,29] 4.8483592773566742e-01
h_prime[1,30] 7.3388479939842810e-01
h_prime[1,31] 4.5849532386870945e-01
h_prime[2,0] 4.9242313565788544e-02
h_prime[2,1] 1.0575057682883829e-01
h_prime[2,2] 3.8822539081114243e-01
h_prime[2,3] 4.4803599013178463e-01
h_prime[2,4] 0
h_prime[2,5] 0
h_prime[2,6] 3.2929525958086181e-02
h_prime[2,7] 0
h_prime[2,8] 4.4342119638052613e-01
h_prime[2,9] 0
h_prime[2,10] 3.0044660777810933e-01
h_prime[2,11] 0
h_prime[2,12] 2.2569630006369304e-01
h_prime[2,13] 1.1641596704431278e-01
h_prime[2,14] 2.9591305503435716e-01
h_prime[2,15] 0
h_prime[2,16] 8.2844919785698662e-02
h_prime[2,17] 0
h_prime[2,18] 0
h_prime[2,19] 1.7022742514434827e-01
h_prime[2,20] 2.0301192729562889e-01
h_prime[2,21] 4.3429471614112458e-01
h_prime[2,22] 0
h_prime[2,23] 1.3190309641333789e-01
h_prime[2,24] 4.7802509425402606e-01
h_prime[2,25] 0
h_prime[2,26] 0
h_prime[2,27] 9.4118727716919148e-02
h_prime[2,28] 0
h_prime[2,29] 3.5733100093545528e-01
h_prime[2,30] 5.5506112040982125e-01
h_prime[2,31] 3.5084551296746597e-01
h_prime[3,0] 4.9242313565731131e-02
h_prime[3,1] 1.0575057682868705e-01
h_prime[3,2] 3.8822539081113855e-01
h_prime[3,3] 4.4803599013177986e-01
h_prime[3,4] 0
h_prime[3,5] 0
h_prime[3,6] 3.2929525958686846e-02
h_prime[3,7] 0
h_prime[3,8] 4.4342119638037147e-01
h_prime[3,9] 0
h_prime[3,10] 3.0044660777804721e-01
h_prime[3,11] 0
h_prime[3,12] 2.2569630006356736e-01
h_prime[3,13] 1.1641596704431312e-01
h_prime[3,14] 2.9591305503436321e-01
h_prime[3,15] 0
h_prime[3,16] 8.2844919785726653e-02
h_prime[3,17] 0
h_prime[3,18] 0
h_prime[3,19] 1.7022742514427552e-01
h_prime[3,20] 2.0301192729489220e-01
h_prime[3,21] 4.3429471614111248e-01
h_prime[3,22] 0
h_prime[3,23] 1.3190309641342621e-01
h_prime[3,24] 4.7802509425401885e-01
h_prime[3,25] 0
h_prime[3,26] 0
h_prime[3,27] 9.4118727716822337e-02
h_prime[3,28] 0
h_prime[3,29] 3.5733100093544989e-01
h_prime[3,30] 5.5506112040982081e-01
h_prime[3,31] 3.5084551296746957e-01
x_0_0_0_GCN 0
s_0_0_0_GCN 4.7491151661159675e-01
z_0_0_0_GCN 0
x_0_0_1_GCN 0
s_0_0_1_GCN 2.8223975978507465e-01
z_0_0_1_GCN 0
x_0_0_2_GCN 0.261255241252476
s_0_0_2_GCN 0
z_0_0_2_GCN 1
x_0_0_3_GCN 1.7719777609028359e-01
s_0_0_3_GCN 0
z_0_0_3_GCN 1
x_0_0_4_GCN 3.2182786362451005e-01
s_0_0_4_GCN 0
z_0_0_4_GCN 1
x_0_0_5_GCN 2.6888026301504930e-01
s_0_0_5_GCN 0
z_0_0_5_GCN 1
x_0_0_6_GCN 2.8069043723878906e-01
s_0_0_6_GCN 0
z_0_0_6_GCN 1
x_0_0_7_GCN 5.7418093389644675e-01
s_0_0_7_GCN 0
z_0_0_7_GCN 1
x_0_0_8_GCN 2.9653229906583305e-02
s_0_0_8_GCN 0
z_0_0_8_GCN 1
x_0_0_9_GCN 0
s_0_0_9_GCN 1.9073624182920179e-01
z_0_0_9_GCN 0
x_0_0_10_GCN 2.2585395235443068e-01
s_0_0_10_GCN 0
z_0_0_10_GCN 1
x_0_0_11_GCN 0
s_0_0_11_GCN 3.9369607239224164e-01
z_0_0_11_GCN 0
x_0_0_12_GCN 0
s_0_0_12_GCN 2.0292282988726226e-01
z_0_0_12_GCN 0
x_0_0_13_GCN 0
s_0_0_13_GCN 2.0043510363139272e-01
z_0_0_13_GCN 0
x_0_0_14_GCN 7.3580831529245783e-01
s_0_0_14_GCN 0
z_0_0_14_GCN 1
x_0_0_15_GCN 0
s_0_0_15_GCN 1.4170158300381486e-02
z_0_0_15_GCN 0
x_0_1_0_GCN 0
s_0_1_0_GCN 0.758861002554488
z_0_1_0_GCN 0
x_0_1_1_GCN 0
s_0_1_1_GCN 2.3237591859452075e-01
z_0_1_1_GCN 0
x_0_1_2_GCN 0.10870251965602
s_0_1_2_GCN 0
z_0_1_2_GCN 1
x_0_1_3_GCN 3.1834198994154611e-01
s_0_1_3_GCN 0
z_0_1_3_GCN 1
x_0_1_4_GCN 6.8270705738138260e-01
s_0_1_4_GCN 0
z_0_1_4_GCN 1
x_0_1_5_GCN 3.0962931356189405e-01
s_0_1_5_GCN 0
z_0_1_5_GCN 1
x_0_1_6_GCN 6.3441007274625427e-01
s_0_1_6_GCN 0
z_0_1_6_GCN 1
x_0_1_7_GCN 1.1990445568134411e+00
s_0_1_7_GCN 0
z_0_1_7_GCN 1
x_0_1_8_GCN 8.8436264115518914e-02
s_0_1_8_GCN 0
z_0_1_8_GCN 1
x_0_1_9_GCN 0
s_0_1_9_GCN 3.5715932351685575e-02
z_0_1_9_GCN 0
x_0_1_10_GCN 5.2062711926778171e-01
s_0_1_10_GCN 0
z_0_1_10_GCN 1
x_0_1_11_GCN 0
s_0_1_11_GCN 8.2313723351836676e-01
z_0_1_11_GCN 0
x_0_1_12_GCN 0
s_0_1_12_GCN 2.2953359770411463e-01
z_0_1_12_GCN 0
x_0_1_13_GCN 0
s_0_1_13_GCN 2.0350762126593402e-01
z_0_1_13_GCN 0
x_0_1_14_GCN 1.0273711700665302e+00
s_0_1_14_GCN 0
z_0_1_14_GCN 1
x_0_1_15_GCN 0
s_0_1_15_GCN 1.0066784488247760e-01
z_0_1_15_GCN 0
x_0_2_0_GCN 0
s_0_2_0_GCN 4.7491151661156061e-01
z_0_2_0_GCN 0
x_0_2_1_GCN 0
s_0_2_1_GCN 2.8223975978508292e-01
z_0_2_1_GCN 0
x_0_2_2_GCN 2.6125524125247374e-01
s_0_2_2_GCN 0
z_0_2_2_GCN 1
x_0_2_3_GCN 1.7719777609028040e-01
s_0_2_3_GCN 0
z_0_2_3_GCN 1
x_0_2_4_GCN 3.2182786362447124e-01
s_0_2_4_GCN 0
z_0_2_4_GCN 1
x_0_2_5_GCN 2.6888026301506496e-01
s_0_2_5_GCN 0
z_0_2_5_GCN 1
x_0_2_6_GCN 2.8069043723881004e-01
s_0_2_6_GCN 0
z_0_2_6_GCN 1
x_0_2_7_GCN 5.7418093389642677e-01
s_0_2_7_GCN 0
z_0_2_7_GCN 1
x_0_2_8_GCN 2.9653229906562592e-02
s_0_2_8_GCN 0
z_0_2_8_GCN 1
x_0_2_9_GCN 0
s_0_2_9_GCN 1.9073624182920440e-01
z_0_2_9_GCN 0
x_0_2_10_GCN 2.2585395235440664e-01
s_0_2_10_GCN 0
z_0_2_10_GCN 1
x_0_2_11_GCN 0
s_0_2_11_GCN 3.9369607239220988e-01
z_0_2_11_GCN 0
x_0_2_12_GCN 0
s_0_2_12_GCN 2.0292282988724780e-01
z_0_2_12_GCN 0
x_0_2_13_GCN 0
s_0_2_13_GCN 2.0043510363139574e-01
z_0_2_13_GCN 0
x_0_2_14_GCN 7.3580831529241264e-01
s_0_2_14_GCN 0
z_0_2_14_GCN 1
x_0_2_15_GCN 0
s_0_2_15_GCN 1.4170158300404228e-02
z_0_2_15_GCN 0
x_0_3_0_GCN 0
s_0_3_0_GCN 4.7491151661156616e-01
z_0_3_0_GCN 0
x_0_3_1_GCN 0
s_0_3_1_GCN 2.8223975978509930e-01
z_0_3_1_GCN 0
x_0_3_2_GCN 2.6125524125247312e-01
s_0_3_2_GCN 0
z_0_3_2_GCN 1
x_0_3_3_GCN 1.7719777609028406e-01
s_0_3_3_GCN 0
z_0_3_3_GCN 1
x_0_3_4_GCN 3.2182786362447913e-01
s_0_3_4_GCN 0
z_0_3_4_GCN 1
x_0_3_5_GCN 2.6888026301507123e-01
s_0_3_5_GCN 0
z_0_3_5_GCN 1
x_0_3_6_GCN 2.8069043723881054e-01
s_0_3_6_GCN 0
z_0_3_6_GCN 1
x_0_3_7_GCN 5.7418093389642744e-01
s_0_3_7_GCN 0
z_0_3_7_GCN 1
x_0_3_8_GCN 2.9653229906562828e-02
s_0_3_8_GCN 0
z_0_3_8_GCN 1
x_0_3_9_GCN 0
s_0_3_9_GCN 1.9073624182921289e-01
z_0_3_9_GCN 0
x_0_3_10_GCN 2.2585395235440622e-01
s_0_3_10_GCN 0
z_0_3_10_GCN 1
x_0_3_11_GCN 0
s_0_3_11_GCN 3.9369607239220888e-01
z_0_3_11_GCN 0
x_0_3_12_GCN 0
s_0_3_12_GCN 2.0292282988725396e-01
z_0_3_12_GCN 0
x_0_3_13_GCN 0
s_0_3_13_GCN 2.0043510363140390e-01
z_0_3_13_GCN 0
x_0_3_14_GCN 7.3580831529241342e-01
s_0_3_14_GCN 0
z_0_3_14_GCN 1
x_0_3_15_GCN 0
s_0_3_15_GCN 1.4170158300401775e-02
z_0_3_15_GCN 0
x_1_0_0_GCN 0
s_1_0_0_GCN 0
z_1_0_0_GCN 1
x_1_0_1_GCN 0
s_1_0_1_GCN 0
z_1_0_1_GCN 1
x_1_0_2_GCN 0
s_1_0_2_GCN 0
z_1_0_2_GCN 1
x_1_0_3_GCN 0
s_1_0_3_GCN 0
z_1_0_3_GCN 1
x_1_0_4_GCN 0
s_1_0_4_GCN 5.3012567405418476e-01
z_1_0_4_GCN 0
x_1_0_5_GCN 0
s_1_0_5_GCN 3.5300549708861928e-01
z_1_0_5_GCN 0
x_1_0_6_GCN 0
s_1_0_6_GCN 0
z_1_0_6_GCN 1
x_1_0_7_GCN 0
s_1_0_7_GCN 1.3570232878657995e-02
z_1_0_7_GCN 0
x_1_0_8_GCN 0
s_1_0_8_GCN 0
z_1_0_8_GCN 1
x_1_0_9_GCN 0
s_1_0_9_GCN 1.4772707058626883e-01
z_1_0_9_GCN 0
x_1_0_10_GCN 0
s_1_0_10_GCN 0
z_1_0_10_GCN 1
x_1_0_11_GCN 0
s_1_0_11_GCN 1.9378579629204673e-01
z_1_0_11_GCN 0
x_1_0_12_GCN 0
s_1_0_12_GCN 0
z_1_0_12_GCN 1
x_1_0_13_GCN 0
s_1_0_13_GCN 0
z_1_0_13_GCN 1
x_1_0_14_GCN 0
s_1_0_14_GCN 0
z_1_0_14_GCN 1
x_1_0_15_GCN 0
s_1_0_15_GCN 2.5363143501872361e-02
z_1_0_15_GCN 0
x_1_0_16_GCN 0
s_1_0_16_GCN 0
z_1_0_16_GCN 1
x_1_0_17_GCN 0
s_1_0_17_GCN 1.0049869151754585e-01
z_1_0_17_GCN 0
x_1_0_18_GCN 0
s_1_0_18_GCN 9.6463774326389057e-02
z_1_0_18_GCN 0
x_1_0_19_GCN 0
s_1_0_19_GCN 0
z_1_0_19_GCN 1
x_1_0_20_GCN 0
s_1_0_20_GCN 2.1838433839072025e-13
z_1_0_20_GCN 1
x_1_0_21_GCN 0
s_1_0_21_GCN 0
z_1_0_21_GCN 1
x_1_0_22_GCN 0
s_1_0_22_GCN 4.8145318992830061e-01
z_1_0_22_GCN 0
x_1_0_23_GCN 0
s_1_0_23_GCN 0
z_1_0_23_GCN 1
x_1_0_24_GCN 0
s_1_0_24_GCN 0
z_1_0_24_GCN 1
x_1_0_25_GCN 0
s_1_0_25_GCN 2.0816742362104346e-01
z_1_0_25_GCN 0
x_1_0_26_GCN 0
s_1_0_26_GCN 1.7699773181168851e-01
z_1_0_26_GCN 0
x_1_0_27_GCN 0
s_1_0_27_GCN 0
z_1_0_27_GCN 1
x_1_0_28_GCN 0
s_1_0_28_GCN 4.1289633814470816e-02
z_1_0_28_GCN 0
x_1_0_29_GCN 0
s_1_0_29_GCN 0
z_1_0_29_GCN 1
x_1_0_30_GCN 0
s_1_0_30_GCN 0
z_1_0_30_GCN 1
x_1_0_31_GCN 0
s_1_0_31_GCN 0
z_1_0_31_GCN 1
x_1_1_0_GCN 0
s_1_1_0_GCN 0
z_1_1_0_GCN 1
x_1_1_1_GCN 0
s_1_1_1_GCN 0
z_1_1_1_GCN 1
x_1_1_2_GCN 0
s_1_1_2_GCN 0
z_1_1_2_GCN 1
x_1_1_3_GCN 0
s_1_1_3_GCN 0
z_1_1_3_GCN 1
x_1_1_4_GCN 0
s_1_1_4_GCN 7.3198432251987733e-01
z_1_1_4_GCN 0
x_1_1_5_GCN 0
s_1_1_5_GCN 4.2019600095921006e-01
z_1_1_5_GCN 0
x_1_1_6_GCN 0
s_1_1_6_GCN 0
z_1_1_6_GCN 1
x_1_1_7_GCN 0
s_1_1_7_GCN 0
z_1_1_7_GCN 1
x_1_1_8_GCN 0
s_1_1_8_GCN 0
z_1_1_8_GCN 1
x_1_1_9_GCN 0
s_1_1_9_GCN 2.1145790957921179e-01
z_1_1_9_GCN 0
x_1_1_10_GCN 0
s_1_1_10_GCN 0
z_1_1_10_GCN 1
x_1_1_11_GCN 0
s_1_1_11_GCN 2.6664558042877096e-01
z_1_1_11_GCN 0
x_1_1_12_GCN 0
s_1_1_12_GCN 0
z_1_1_12_GCN 1
x_1_1_13_GCN 0
s_1_1_13_GCN 0
z_1_1_13_GCN 1
x_1_1_14_GCN 0
s_1_1_14_GCN 0
z_1_1_14_GCN 1
x_1_1_15_GCN 0
s_1_1_15_GCN 4.6413754709927618e-02
z_1_1_15_GCN 0
x_1_1_16_GCN 0
s_1_1_16_GCN 0
z_1_1_16_GCN 1
x_1_1_17_GCN 0
s_1_1_17_GCN 1.4097492885595392e-01
z_1_1_17_GCN 0
x_1_1_18_GCN 0
s_1_1_18_GCN 1.2995780197873028e-01
z_1_1_18_GCN 0
x_1_1_19_GCN 0
s_1_1_19_GCN 0
z_1_1_19_GCN 1
x_1_1_20_GCN 0
s_1_1_20_GCN 3.2209304667851768e-13
z_1_1_20_GCN 1
x_1_1_21_GCN 0
s_1_1_21_GCN 0
z_1_1_21_GCN 1
x_1_1_22_GCN 0
s_1_1_22_GCN 6.1685032510012139e-01
z_1_1_22_GCN 0
x_1_1_23_GCN 0
s_1_1_23_GCN 0
z_1_1_23_GCN 1
x_1_1_24_GCN 0
s_1_1_24_GCN 0
z_1_1_24_GCN 1
x_1_1_25_GCN 0
s_1_1_25_GCN 2.8059197402572988e-01
z_1_1_25_GCN 0
x_1_1_26_GCN 0
s_1_1_26_GCN 2.5030287298488046e-01
z_1_1_26_GCN 0
x_1_1_27_GCN 0
s_1_1_27_GCN 0
z_1_1_27_GCN 1
x_1_1_28_GCN 0
s_1_1_28_GCN 2.0920747711289489e-02
z_1_1_28_GCN 0
x_1_1_29_GCN 0
s_1_1_29_GCN 0
z_1_1_29_GCN 1
x_1_1_30_GCN 0
s_1_1_30_GCN 0
z_1_1_30_GCN 1
x_1_1_31_GCN 0
s_1_1_31_GCN 0
z_1_1_31_GCN 1
x_1_2_0_GCN 0
s_1_2_0_GCN 0
z_1_2_0_GCN 1
x_1_2_1_GCN 0
s_1_2_1_GCN 0
z_1_2_1_GCN 1
x_1_2_2_GCN 0
s_1_2_2_GCN 0
z_1_2_2_GCN 1
x_1_2_3_GCN 0
s_1_2_3_GCN 0
z_1_2_3_GCN 1
x_1_2_4_GCN 0
s_1_2_4_GCN 5.3012567405494271e-01
z_1_2_4_GCN 0
x_1_2_5_GCN 0
s_1_2_5_GCN 3.5300549708861551e-01
z_1_2_5_GCN 0
x_1_2_6_GCN 0
s_1_2_6_GCN 0
z_1_2_6_GCN 1
x_1_2_7_GCN 0
s_1_2_7_GCN 1.3570232878711730e-02
z_1_2_7_GCN 0
x_1_2_8_GCN 0
s_1_2_8_GCN 0
z_1_2_8_GCN 1
x_1_2_9_GCN 0
s_1_2_9_GCN 1.4772707058686613e-01
z_1_2_9_GCN 0
x_1_2_10_GCN 0
s_1_2_10_GCN 0
z_1_2_10_GCN 1
x_1_2_11_GCN 0
s_1_2_11_GCN 1.9378579629209852e-01
z_1_2_11_GCN 0
x_1_2_12_GCN 0
s_1_2_12_GCN 0
z_1_2_12_GCN 1
x_1_2_13_GCN 0
s_1_2_13_GCN 0
z_1_2_13_GCN 1
x_1_2_14_GCN 0
s_1_2_14_GCN 0
z_1_2_14_GCN 1
x_1_2_15_GCN 0
s_1_2_15_GCN 0.0253631435027005
z_1_2_15_GCN 0
x_1_2_16_GCN 0
s_1_2_16_GCN 0
z_1_2_16_GCN 1
x_1_2_17_GCN 0
s_1_2_17_GCN 1.0049869151797042e-01
z_1_2_17_GCN 0
x_1_2_18_GCN 0
s_1_2_18_GCN 9.6463774326314422e-02
z_1_2_18_GCN 0
x_1_2_19_GCN 0
s_1_2_19_GCN 0
z_1_2_19_GCN 1
x_1_2_20_GCN 0
s_1_2_20_GCN 0
z_1_2_20_GCN 1
x_1_2_21_GCN 0
s_1_2_21_GCN 0
z_1_2_21_GCN 1
x_1_2_22_GCN 0
s_1_2_22_GCN 4.8145318992778358e-01
z_1_2_22_GCN 0
x_1_2_23_GCN 0
s_1_2_23_GCN 0
z_1_2_23_GCN 1
x_1_2_24_GCN 0
s_1_2_24_GCN 0
z_1_2_24_GCN 1
x_1_2_25_GCN 0
s_1_2_25_GCN 2.0816742362125862e-01
z_1_2_25_GCN 0
x_1_2_26_GCN 0
s_1_2_26_GCN 1.7699773181107828e-01
z_1_2_26_GCN 0
x_1_2_27_GCN 0
s_1_2_27_GCN 0
z_1_2_27_GCN 1
x_1_2_28_GCN 0
s_1_2_28_GCN 4.1289633814858409e-02
z_1_2_28_GCN 0
x_1_2_29_GCN 0
s_1_2_29_GCN 0
z_1_2_29_GCN 1
x_1_2_30_GCN 0
s_1_2_30_GCN 0
z_1_2_30_GCN 1
x_1_2_31_GCN 0
s_1_2_31_GCN 0
z_1_2_31_GCN 1
x_1_3_0_GCN 0
s_1_3_0_GCN 0
z_1_3_0_GCN 1
x_1_3_1_GCN 0
s_1_3_1_GCN 0
z_1_3_1_GCN 1
x_1_3_2_GCN 0
s_1_3_2_GCN 0
z_1_3_2_GCN 1
x_1_3_3_GCN 0
s_1_3_3_GCN 0
z_1_3_3_GCN 1
x_1_3_4_GCN 0
s_1_3_4_GCN 5.3012567405495559e-01
z_1_3_4_GCN 0
x_1_3_5_GCN 0
s_1_3_5_GCN 3.5300549708861911e-01
z_1_3_5_GCN 0
x_1_3_6_GCN 0
s_1_3_6_GCN 0
z_1_3_6_GCN 1
x_1_3_7_GCN 0
s_1_3_7_GCN 1.3570232878706623e-02
z_1_3_7_GCN 0
x_1_3_8_GCN 0
s_1_3_8_GCN 0
z_1_3_8_GCN 1
x_1_3_9_GCN 0
s_1_3_9_GCN 1.4772707058686488e-01
z_1_3_9_GCN 0
x_1_3_10_GCN 0
s_1_3_10_GCN 0
z_1_3_10_GCN 1
x_1_3_11_GCN 0
s_1_3_11_GCN 1.9378579629218592e-01
z_1_3_11_GCN 0
x_1_3_12_GCN 0
s_1_3_12_GCN 0
z_1_3_12_GCN 1
x_1_3_13_GCN 0
s_1_3_13_GCN 0
z_1_3_13_GCN 1
x_1_3_14_GCN 0
s_1_3_14_GCN 0
z_1_3_14_GCN 1
x_1_3_15_GCN 0
s_1_3_15_GCN 2.5363143502645423e-02
z_1_3_15_GCN 0
x_1_3_16_GCN 0
s_1_3_16_GCN 0
z_1_3_16_GCN 1
x_1_3_17_GCN 0
s_1_3_17_GCN 1.0049869151797843e-01
z_1_3_17_GCN 0
x_1_3_18_GCN 0
s_1_3_18_GCN 9.6463774326327523e-02
z_1_3_18_GCN 0
x_1_3_19_GCN 0
s_1_3_19_GCN 0
z_1_3_19_GCN 1
x_1_3_20_GCN 0
s_1_3_20_GCN 2.3928428682928882e-13
z_1_3_20_GCN 1
x_1_3_21_GCN 0
s_1_3_21_GCN 0
z_1_3_21_GCN 1
x_1_3_22_GCN 0
s_1_3_22_GCN 4.8145318992778718e-01
z_1_3_22_GCN 0
x_1_3_23_GCN 0
s_1_3_23_GCN 0
z_1_3_23_GCN 1
x_1_3_24_GCN 0
s_1_3_24_GCN 0
z_1_3_24_GCN 1
x_1_3_25_GCN 0
s_1_3_25_GCN 2.0816742362125898e-01
z_1_3_25_GCN 0
x_1_3_26_GCN 0
s_1_3_26_GCN 1.7699773181155748e-01
z_1_3_26_GCN 0
x_1_3_27_GCN 0
s_1_3_27_GCN 0
z_1_3_27_GCN 1
x_1_3_28_GCN 0
s_1_3_28_GCN 4.1289633814872086e-02
z_1_3_28_GCN 0
x_1_3_29_GCN 0
s_1_3_29_GCN 0
z_1_3_29_GCN 1
x_1_3_30_GCN 0
s_1_3_30_GCN 0
z_1_3_30_GCN 1
x_1_3_31_GCN 0
s_1_3_31_GCN 0
z_1_3_31_GCN 1
h[0] 2.3835581121871180e-01
h[1] 4.7528335581689224e-01
h[2] 1.6618756402943848e+00
h[3] 1.9567976440360282e+00
h[4] 0
h[5] 0
h[6] 1.4636087723073679e-01
h[7] 1.5327877245396193e-02
h[8] 1.9166124337363615e+00
h[9] 0
h[10] 1.2909290321866176e+00
h[11] 0
h[12] 9.8804042413322057e-01
h[13] 4.6744586588434517e-01
h[14] 1.3260887365841172e+00
h[15] 0
h[16] 3.6587003979815969e-01
h[17] 0
h[18] 0
h[19] 7.3639706316781384e-01
h[20] 8.8285004949271639e-01
h[21] 1.9490152973997912e+00
h[22] 0
h[23] 5.8732997198826653e-01
h[24] 2.0983798595572751e+00
h[25] 0
h[26] 0
h[27] 4.5593325397232048e-01
h[28] 0
h[29] 1.5568289305417289e+00
h[30] 2.3990681606296449e+00
h[31] 1.5110318627709918e+00
y 1.9125112356082323e+00
x_1_0_ANN 0
s_1_0_ANN 6.2026088544746560e-01
z_1_0_ANN 0
x_1_1_ANN 0
s_1_1_ANN 1.3128291116183233e+00
z_1_1_ANN 0
x_1_2_ANN 0
s_1_2_ANN 3.3919199239888820e-01
z_1_2_ANN 0
x_1_3_ANN 0
s_1_3_ANN 2.0495675255759429e+00
z_1_3_ANN 0
x_1_4_ANN 0
s_1_4_ANN 4.2552707936272610e-01
z_1_4_ANN 0
x_1_5_ANN 1.8085795963106845e+00
s_1_5_ANN 0
z_1_5_ANN 1
x_1_6_ANN 0
s_1_6_ANN 9.1875346934980417e-01
z_1_6_ANN 0
x_1_7_ANN 2.5797208457217740e+00
s_1_7_ANN -3.9080420786985481e-06
z_1_7_ANN 1
x_1_8_ANN 1.8435880717428530e+00
s_1_8_ANN 0
z_1_8_ANN 1
x_1_9_ANN 0
s_1_9_ANN 0.560594637569553
z_1_9_ANN 0
x_1_10_ANN 0
s_1_10_ANN 2.9608947938659924e-01
z_1_10_ANN 0
x_1_11_ANN -7.2677112874838225e-06
s_1_11_ANN 5.4927340243519751e-01
z_1_11_ANN 0
x_1_12_ANN 0
s_1_12_ANN 0.755697469070379
z_1_12_ANN 0
x_1_13_ANN 2.3017104869592444e+00
s_1_13_ANN 0
z_1_13_ANN 1
x_1_14_ANN 0
s_1_14_ANN 5.0327806660636021e-01
z_1_14_ANN 0
x_1_15_ANN 0
s_1_15_ANN 5.0206872248068657e-01
z_1_15_ANN 0
